NAME : tsp50_2.212.tour
COMMENT : Length = 212
COMMENT : Found by LKH [Keld Helsgaun]
TYPE : TOUR
DIMENSION : 50
TOUR_SECTION
1
12
33
9
34
31
23
47
44
48
29
37
8
43
41
32
45
28
39
22
21
6
2
3
36
35
14
10
13
40
4
17
38
27
11
16
26
18
42
15
49
50
7
20
25
46
5
24
19
30
-1
EOF
